c CNF file corresponding to a (partial) station packing problem.
p cnf 1965 229
1 2 3 4 5 6 7 8 9 10 11 12 13 14 0
-1 -2 0
-1 -3 0
-1 -4 0
-1 -5 0
-1 -6 0
-1 -7 0
-1 -8 0
-1 -9 0
-1 -10 0
-1 -11 0
-1 -12 0
-1 -13 0
-1 -14 0
-2 -3 0
-2 -4 0
-2 -5 0
-2 -6 0
-2 -7 0
-2 -8 0
-2 -9 0
-2 -10 0
-2 -11 0
-2 -12 0
-2 -13 0
-2 -14 0
-3 -4 0
-3 -5 0
-3 -6 0
-3 -7 0
-3 -8 0
-3 -9 0
-3 -10 0
-3 -11 0
-3 -12 0
-3 -13 0
-3 -14 0
-4 -5 0
-4 -6 0
-4 -7 0
-4 -8 0
-4 -9 0
-4 -10 0
-4 -11 0
-4 -12 0
-4 -13 0
-4 -14 0
-5 -6 0
-5 -7 0
-5 -8 0
-5 -9 0
-5 -10 0
-5 -11 0
-5 -12 0
-5 -13 0
-5 -14 0
-6 -7 0
-6 -8 0
-6 -9 0
-6 -10 0
-6 -11 0
-6 -12 0
-6 -13 0
-6 -14 0
-7 -8 0
-7 -9 0
-7 -10 0
-7 -11 0
-7 -12 0
-7 -13 0
-7 -14 0
-8 -9 0
-8 -10 0
-8 -11 0
-8 -12 0
-8 -13 0
-8 -14 0
-9 -10 0
-9 -11 0
-9 -12 0
-9 -13 0
-9 -14 0
-10 -11 0
-10 -12 0
-10 -13 0
-10 -14 0
-11 -12 0
-11 -13 0
-11 -14 0
-12 -13 0
-12 -14 0
-13 -14 0
1949 1950 1951 1952 1953 1954 1955 1956 1957 1958 1959 1960 1961 1962 1963 1964 1965 0
-1949 -1950 0
-1949 -1951 0
-1949 -1952 0
-1949 -1953 0
-1949 -1954 0
-1949 -1955 0
-1949 -1956 0
-1949 -1957 0
-1949 -1958 0
-1949 -1959 0
-1949 -1960 0
-1949 -1961 0
-1949 -1962 0
-1949 -1963 0
-1949 -1964 0
-1949 -1965 0
-1950 -1951 0
-1950 -1952 0
-1950 -1953 0
-1950 -1954 0
-1950 -1955 0
-1950 -1956 0
-1950 -1957 0
-1950 -1958 0
-1950 -1959 0
-1950 -1960 0
-1950 -1961 0
-1950 -1962 0
-1950 -1963 0
-1950 -1964 0
-1950 -1965 0
-1951 -1952 0
-1951 -1953 0
-1951 -1954 0
-1951 -1955 0
-1951 -1956 0
-1951 -1957 0
-1951 -1958 0
-1951 -1959 0
-1951 -1960 0
-1951 -1961 0
-1951 -1962 0
-1951 -1963 0
-1951 -1964 0
-1951 -1965 0
-1952 -1953 0
-1952 -1954 0
-1952 -1955 0
-1952 -1956 0
-1952 -1957 0
-1952 -1958 0
-1952 -1959 0
-1952 -1960 0
-1952 -1961 0
-1952 -1962 0
-1952 -1963 0
-1952 -1964 0
-1952 -1965 0
-1953 -1954 0
-1953 -1955 0
-1953 -1956 0
-1953 -1957 0
-1953 -1958 0
-1953 -1959 0
-1953 -1960 0
-1953 -1961 0
-1953 -1962 0
-1953 -1963 0
-1953 -1964 0
-1953 -1965 0
-1954 -1955 0
-1954 -1956 0
-1954 -1957 0
-1954 -1958 0
-1954 -1959 0
-1954 -1960 0
-1954 -1961 0
-1954 -1962 0
-1954 -1963 0
-1954 -1964 0
-1954 -1965 0
-1955 -1956 0
-1955 -1957 0
-1955 -1958 0
-1955 -1959 0
-1955 -1960 0
-1955 -1961 0
-1955 -1962 0
-1955 -1963 0
-1955 -1964 0
-1955 -1965 0
-1956 -1957 0
-1956 -1958 0
-1956 -1959 0
-1956 -1960 0
-1956 -1961 0
-1956 -1962 0
-1956 -1963 0
-1956 -1964 0
-1956 -1965 0
-1957 -1958 0
-1957 -1959 0
-1957 -1960 0
-1957 -1961 0
-1957 -1962 0
-1957 -1963 0
-1957 -1964 0
-1957 -1965 0
-1958 -1959 0
-1958 -1960 0
-1958 -1961 0
-1958 -1962 0
-1958 -1963 0
-1958 -1964 0
-1958 -1965 0
-1959 -1960 0
-1959 -1961 0
-1959 -1962 0
-1959 -1963 0
-1959 -1964 0
-1959 -1965 0
-1960 -1961 0
-1960 -1962 0
-1960 -1963 0
-1960 -1964 0
-1960 -1965 0
-1961 -1962 0
-1961 -1963 0
-1961 -1964 0
-1961 -1965 0
-1962 -1963 0
-1962 -1964 0
-1962 -1965 0
-1963 -1964 0
-1963 -1965 0
-1964 -1965 0
